; none
(set-info :status unknown)
(set-logic HORN)
(declare-fun |@Fail!0| () Bool)
(declare-fun inv5 (Int Int Int Int Int Int Int) Bool)
(declare-fun inv1 (Int Int Int Int Int) Bool)
(declare-fun inv2 (Int Int Int Int Int) Bool)
(declare-fun inv3a (Int Int Int Int Int) Bool)
(declare-fun inv3b (Int Int Int Int Int) Bool)
(declare-fun inv4a (Int Int Int Int Int) Bool)
(declare-fun inv4b (Int Int Int Int Int) Bool)
(declare-fun |@Fail!1| () Bool)
(assert
(forall ((?BC (Array Int Int)) (?K Int) (?BC_K Int) (?AC (Array Int Int)) (?AC_K Int) (?B (Array Int Int)) (?B_K Int) (?A (Array Int Int)) (?A_K Int) (?N Int) )(let ((?x662 (select ?AC ?K)))
(let ((?x663 (select ?B ?K)))
(let (($x665 (inv5 ?K ?N ?K (select ?A ?K) ?x663 ?x662 (select ?BC ?K))))
(let (($x672 (and (= (select ?BC ?K) ?BC_K) (= ?x662 ?AC_K) (= ?x663 ?B_K) (= (select ?A ?K) ?A_K) (not (<= ?N ?K)) $x665 (<= 0 ?K))))
(=> (not (or (not $x672) (and (= ?A_K ?BC_K) (= ?B_K ?AC_K)))) |@Fail!0|))))))
)
(assert
(forall ((?I Int) (?A (Array Int Int)) (?Q Int) (|@a_3| Int) (?AC (Array Int Int)) (|@a_4| Int) (?N Int) )(let (($x685 (and (= ?I 0) (= (select ?A ?Q) |@a_3|) (= (select ?AC ?Q) |@a_4|))))
(=> $x685 (inv1 ?I ?N ?Q |@a_3| |@a_4|))))
)
(assert
(forall ((?AC1 (Array Int Int)) (?AC (Array Int Int)) (?I Int) (?W Int) (?A (Array Int Int)) (?I1 Int) (?N Int) (?Q Int) (|@a_3| Int) (|@a_4| Int) )(let (($x705 (and (= ?AC1 (store ?AC ?I ?W)) (= (select ?A ?I) ?W) (= ?I1 (+ 1 ?I)) (inv1 ?I ?N ?Q (select ?A ?Q) (select ?AC ?Q)) (inv1 ?I ?N ?I (select ?A ?I) (select ?AC ?I)) (not (<= ?N ?I)) (= (select ?A ?Q) |@a_3|) (= (select ?AC1 ?Q) |@a_4|))))
(=> $x705 (inv1 ?I1 ?N ?Q |@a_3| |@a_4|))))
)
(assert
(forall ((?I Int) (?N Int) (?I1 Int) (?B (Array Int Int)) (?Q Int) (|@a_3| Int) (?BC (Array Int Int)) (|@a_4| Int) )(let (($x715 (>= ?I ?N)))
(let (($x716 (and $x715 (= ?I1 0) (= (select ?B ?Q) |@a_3|) (= (select ?BC ?Q) |@a_4|))))
(=> $x716 (inv2 ?I1 ?N ?Q |@a_3| |@a_4|)))))
)
(assert
(forall ((?BC1 (Array Int Int)) (?BC (Array Int Int)) (?I Int) (?W Int) (?B (Array Int Int)) (?I1 Int) (?N Int) (?Q Int) (|@a_3| Int) (|@a_4| Int) )(let (($x724 (and (= ?BC1 (store ?BC ?I ?W)) (= (select ?B ?I) ?W) (= ?I1 (+ 1 ?I)) (inv2 ?I ?N ?Q (select ?B ?Q) (select ?BC ?Q)) (inv2 ?I ?N ?I (select ?B ?I) (select ?BC ?I)) (not (<= ?N ?I)) (= (select ?B ?Q) |@a_3|) (= (select ?BC1 ?Q) |@a_4|))))
(=> $x724 (inv2 ?I1 ?N ?Q |@a_3| |@a_4|))))
)
(assert
(forall ((?I1 Int) (?I Int) (?N Int) (?Q Int) (?A (Array Int Int)) (?AC (Array Int Int)) (|@a_3| Int) (|@a_4| Int) )(let (($x736 (and (= ?I1 0) (inv1 ?I ?N ?Q (select ?A ?Q) (select ?AC ?Q)) (>= ?I ?N) (= (select ?A ?Q) |@a_3|) (= (select ?AC ?Q) |@a_4|))))
(=> $x736 (inv3a ?I1 ?N ?Q |@a_3| |@a_4|))))
)
(assert
(forall ((?B1 (Array Int Int)) (?B (Array Int Int)) (?I Int) (?AI Int) (?A1 (Array Int Int)) (?A (Array Int Int)) (?BI Int) (?I1 Int) (?N Int) (?Q Int) (?AC (Array Int Int)) (|@a_3| Int) (|@a_4| Int) )(let ((?x745 (select ?AC ?Q)))
(let (($x746 (= ?x745 |@a_4|)))
(let (($x750 (not (<= ?N ?I))))
(let (($x756 (= ?I1 (+ 1 ?I))))
(let ((?x752 (select ?A ?I)))
(let (($x757 (= ?x752 ?AI)))
(let ((?x758 (select ?B ?I)))
(let (($x759 (= ?x758 ?BI)))
(let (($x761 (= ?A1 (store ?A ?I ?BI))))
(let (($x763 (= ?B1 (store ?B ?I ?AI))))
(let (($x764 (and $x763 $x761 $x759 $x757 $x756 (inv3a ?I ?N ?Q (select ?A ?Q) ?x745) (inv3a ?I ?N ?I ?x752 (select ?AC ?I)) $x750 (= (select ?A1 ?Q) |@a_3|) $x746)))
(=> $x764 (inv3a ?I1 ?N ?Q |@a_3| |@a_4|))))))))))))))
)
(assert
(forall ((?I1 Int) (?I Int) (?N Int) (?Q Int) (?B (Array Int Int)) (?BC (Array Int Int)) (|@a_3| Int) (|@a_4| Int) )(let (($x771 (and (= ?I1 0) (inv2 ?I ?N ?Q (select ?B ?Q) (select ?BC ?Q)) (>= ?I ?N) (= (select ?B ?Q) |@a_3|) (= (select ?BC ?Q) |@a_4|))))
(=> $x771 (inv3b ?I1 ?N ?Q |@a_3| |@a_4|))))
)
(assert
(forall ((?B1 (Array Int Int)) (?B (Array Int Int)) (?I Int) (?AI Int) (?A1 (Array Int Int)) (?A (Array Int Int)) (?BI Int) (?I1 Int) (?N Int) (?Q Int) (?BC (Array Int Int)) (|@a_3| Int) (|@a_4| Int) )(let ((?x745 (select ?BC ?Q)))
(let (($x746 (= ?x745 |@a_4|)))
(let (($x750 (not (<= ?N ?I))))
(let (($x756 (= ?I1 (+ 1 ?I))))
(let ((?x752 (select ?A ?I)))
(let (($x757 (= ?x752 ?AI)))
(let ((?x758 (select ?B ?I)))
(let (($x759 (= ?x758 ?BI)))
(let (($x761 (= ?A1 (store ?A ?I ?BI))))
(let (($x763 (= ?B1 (store ?B ?I ?AI))))
(let (($x782 (and $x763 $x761 $x759 $x757 $x756 (inv3b ?I ?N ?Q (select ?B ?Q) ?x745) (inv3b ?I ?N ?I ?x758 (select ?BC ?I)) $x750 (= (select ?B1 ?Q) |@a_3|) $x746)))
(=> $x782 (inv3b ?I1 ?N ?Q |@a_3| |@a_4|))))))))))))))
)
(assert
(forall ((?I1 Int) (?I Int) (?N Int) (?Q Int) (?B (Array Int Int)) (?BC (Array Int Int)) (?A (Array Int Int)) (|@a_3| Int) (|@a_4| Int) )(let (($x715 (>= ?I ?N)))
(let (($x795 (and (= ?I1 0) (inv3b ?I ?N ?Q (select ?B ?Q) (select ?BC ?Q)) $x715 (= (select ?A ?Q) |@a_3|) (= (select ?BC ?Q) |@a_4|))))
(=> $x795 (inv4a ?I1 ?N ?Q |@a_3| |@a_4|)))))
)
(assert
(forall ((?B1 (Array Int Int)) (?B (Array Int Int)) (?I Int) (?AI Int) (?A1 (Array Int Int)) (?A (Array Int Int)) (?BI Int) (?I1 Int) (?N Int) (?Q Int) (?BC (Array Int Int)) (|@a_3| Int) (|@a_4| Int) )(let ((?x745 (select ?BC ?Q)))
(let (($x746 (= ?x745 |@a_4|)))
(let (($x750 (not (<= ?N ?I))))
(let (($x756 (= ?I1 (+ 1 ?I))))
(let ((?x752 (select ?A ?I)))
(let (($x757 (= ?x752 ?AI)))
(let ((?x758 (select ?B ?I)))
(let (($x759 (= ?x758 ?BI)))
(let (($x761 (= ?A1 (store ?A ?I ?BI))))
(let (($x763 (= ?B1 (store ?B ?I ?AI))))
(let (($x803 (and $x763 $x761 $x759 $x757 $x756 $x750 (inv3b ?I ?N ?Q (select ?B ?Q) ?x745) (inv3b ?I ?N ?I ?x758 (select ?BC ?I)) (inv4a ?I ?N ?Q (select ?A ?Q) ?x745) (inv4a ?I ?N ?I ?x752 (select ?BC ?I)) (= (select ?A1 ?Q) |@a_3|) $x746)))
(=> $x803 (inv4a ?I1 ?N ?Q |@a_3| |@a_4|))))))))))))))
)
(assert
(forall ((?I1 Int) (?I Int) (?N Int) (?Q Int) (?A (Array Int Int)) (?AC (Array Int Int)) (?B (Array Int Int)) (|@a_3| Int) (|@a_4| Int) )(let (($x715 (>= ?I ?N)))
(let (($x810 (and (= ?I1 0) (inv3a ?I ?N ?Q (select ?A ?Q) (select ?AC ?Q)) $x715 (= (select ?B ?Q) |@a_3|) (= (select ?AC ?Q) |@a_4|))))
(=> $x810 (inv4b ?I1 ?N ?Q |@a_3| |@a_4|)))))
)
(assert
(forall ((?B1 (Array Int Int)) (?B (Array Int Int)) (?I Int) (?AI Int) (?A1 (Array Int Int)) (?A (Array Int Int)) (?BI Int) (?I1 Int) (?N Int) (?Q Int) (?AC (Array Int Int)) (|@a_3| Int) (|@a_4| Int) )(let ((?x745 (select ?AC ?Q)))
(let (($x746 (= ?x745 |@a_4|)))
(let (($x750 (not (<= ?N ?I))))
(let (($x756 (= ?I1 (+ 1 ?I))))
(let ((?x752 (select ?A ?I)))
(let (($x757 (= ?x752 ?AI)))
(let ((?x758 (select ?B ?I)))
(let (($x759 (= ?x758 ?BI)))
(let (($x761 (= ?A1 (store ?A ?I ?BI))))
(let (($x763 (= ?B1 (store ?B ?I ?AI))))
(let (($x818 (and $x763 $x761 $x759 $x757 $x756 $x750 (inv3a ?I ?N ?Q (select ?A ?Q) ?x745) (inv3a ?I ?N ?I ?x752 (select ?AC ?I)) (inv4b ?I ?N ?Q (select ?B ?Q) ?x745) (inv4b ?I ?N ?I ?x758 (select ?AC ?I)) (= (select ?B1 ?Q) |@a_3|) $x746)))
(=> $x818 (inv4b ?I1 ?N ?Q |@a_3| |@a_4|))))))))))))))
)
(assert
(forall ((?I1 Int) (?I Int) (?N Int) (?Q Int) (?A (Array Int Int)) (?BC (Array Int Int)) (?B (Array Int Int)) (?AC (Array Int Int)) (|@a_3| Int) (|@a_4| Int) (|@a_5| Int) (|@a_6| Int) )(let (($x835 (and (= ?I1 0) (>= ?I ?N) (inv4a ?I ?N ?Q (select ?A ?Q) (select ?BC ?Q)) (inv4b ?I ?N ?Q (select ?B ?Q) (select ?AC ?Q)) (= (select ?A ?Q) |@a_3|) (= (select ?B ?Q) |@a_4|) (= (select ?AC ?Q) |@a_5|) (= (select ?BC ?Q) |@a_6|))))
(=> $x835 (inv5 ?I1 ?N ?Q |@a_3| |@a_4| |@a_5| |@a_6|))))
)
(assert
(forall ((?I1 Int) (?I Int) (?N Int) (?Q Int) (?A (Array Int Int)) (?B (Array Int Int)) (?AC (Array Int Int)) (?BC (Array Int Int)) (?I4 Int) (|@a_3| Int) (|@a_4| Int) (|@a_5| Int) (|@a_6| Int) )(let ((?x842 (select ?BC ?Q)))
(let ((?x844 (select ?AC ?Q)))
(let ((?x846 (select ?B ?Q)))
(let ((?x848 (select ?A ?Q)))
(let (($x858 (and (= ?I1 (+ 1 ?I)) (not (<= ?N ?I)) (inv5 ?I ?N ?Q ?x848 ?x846 ?x844 ?x842) (>= ?I4 ?N) (inv4a ?I4 ?N ?Q ?x848 ?x842) (inv4b ?I4 ?N ?Q ?x846 ?x844) (= ?x848 |@a_3|) (= ?x846 |@a_4|) (= ?x844 |@a_5|) (= ?x842 |@a_6|))))
(=> $x858 (inv5 ?I1 ?N ?Q |@a_3| |@a_4| |@a_5| |@a_6|))))))))
)
(assert
(=> |@Fail!0| |@Fail!1|))
(assert
(let (($x515 (not false)))
(let (($x862 (and |@Fail!1| $x515)))
(=> $x862 false))))
(check-sat)
